contest/ICPC/2014/欧洲/NWERC西北欧/all/knapsackcollection/data/secret/06-maximalResult_allSame.in
2000 9999999 10000000
3521182 3521182 3521182 3521182 3521182 3521182 3521182 3521182 3521182 3521182 3521182 3521182 3521182 3521182 3521182 3521182 3521182 3521182 3521182 3521182 3521182 3521182 3521182 3521182 3521182 3521182 3521182 3521182 3521182 3521182 3521182 3521182 3521182 3521182 3521182 3521182 3521182 3521182 3521182 3521182 3521182 3521182 3521182 3521182 3521182 3521182 3521182 3521182 3521182 3521182 3521182 3521182 3521182 3521182 3521182 3521182 3521182 3521182 3521182 3521182 3521182 3521182 3521182 3521182 3521182 3521182 3521182 3521182 3521182 3521182 3521182 3521182 3521182 3521182 3521182 3521182 3521182 3521182 3521182 3521182 3521182 3521182 3521182 3521182 3521182 3521182 3521182 3521182 3521182 3521182 3521182 3521182 3521182 3521182 3521182 3521182 3521182 3521182 3521182 3521182 3521182 3521182 3521182 3521182 3521182 3521182 3521182 3521182 3521182 3521182 3521182 3521182 3521182 3521182 3521182 3521182 3521182 3521182 3521182 3521182 3521182 3521182 3521182 3521182 3521182 3521182 3521182 3521182 3521182 3521182 3521182 3521182 3521182 3521182 3521182 3521182 3521182 3521182 3521182 3521182 3521182 3521182 3521182 3521182 3521182 3521182 3521182 3521182 3521182 3521182 3521182 3521182 3521182 3521182 3521182 3521182 3521182 3521182 3521182 3521182 3521182 3521182 3521182 3521182 3521182 3521182 3521182 3521182 3521182 3521182 3521182 3521182 3521182 3521182 3521182 3521182 3521182 3521182 3521182 3521182 3521182 3521182 3521182 3521182 3521182 3521182 3521182 3521182 3521182 3521182 3521182 3521182 3521182 3521182 3521182 3521182 3521182 3521182 3521182 3521182 3521182 3521182 3521182 3521182 3521182 3521182 3521182 3521182 3521182 3521182 3521182 3521182 3521182 3521182 3521182 3521182 3521182 3521182 3521182 3521182 3521182 3521182 3521182 3521182 3521182 3521182 3521182 3521182 3521182 3521182 3521182 3521182 3521182 3521182 3521182 3521182 3521182 3521182 3521182 3521182 3521182 3521182 3521182 3521182 3521182 3521182 3521182 3521182 3521182 3521182 3521182 3521182 3521182 3521182 3521182 3521182 3521182 3521182 3521182 3521182 3521182 3521182 3521182 3521182 3521182 3521182 3521182 3521182 3521182 3521182 3521182 3521182 3521182 3521182 3521182 3521182 3521182 3521182 3521182 3521182 3521182 3521182 3521182 3521182 3521182 3521182 3521182 3521182 3521182 3521182 3521182 3521182 3521182 3521182 3521182 3521182 3521182 3521182 3521182 3521182 3521182 3521182 3521182 3521182 3521182 3521182 3521182 3521182 3521182 3521182 3521182 3521182 3521182 3521182 3521182 3521182 3521182 3521182 3521182 3521182 3521182 3521182 3521182 3521182 3521182 3521182 3521182 3521182 3521182 3521182 3521182 3521182 3521182 3521182 3521182 3521182 3521182 3521182 3521182 3521182 3521182 3521182 3521182 3521182 3521182 3521182 3521182 3521182 3521182 3521182 3521182 3521182 3521182 3521182 3521182 3521182 3521182 3521182 3521182 3521182 3521182 3521182 3521182 3521182 3521182 3521182 3521182 3521182 3521182 3521182 3521182 3521182 3521182 3521182 3521182 3521182 3521182 3521182 3521182 3521182 3521182 3521182 3521182 3521182 3521182 3521182 3521182 3521182 3521182 3521182 3521182 3521182 3521182 3521182 3521182 3521182 3521182 3521182 3521182 3521182 3521182 3521182 3521182 3521182 3521182 3521182 3521182 3521182 3521182 3521182 3521182 3521182 3521182 3521182 3521182 3521182 3521182 3521182 3521182 3521182 3521182 3521182 3521182 3521182 3521182 3521182 3521182 3521182 3521182 3521182 3521182 3521182 3521182 3521182 3521182 3521182 3521182 3521182 3521182 3521182 3521182 3521182 3521182 3521182 3521182 3521182 3521182 3521182 3521182 3521182 3521182 3521182 3521182 3521182 3521182 3521182 3521182 3521182 3521182 3521182 3521182 3521182 3521182 3521182 3521182 3521182 3521182 3521182 3521182 3521182 3521182 3521182 3521182 3521182 3521182 3521182 3521182 3521182 3521182 3521182 3521182 3521182 3521182 3521182 3521182 3521182 3521182 3521182 3521182 3521182 3521182 3521182 3521182 3521182 3521182 3521182 3521182 3521182 3521182 3521182 3521182 3521182 3521182 3521182 3521182 3521182 3521182 3521182 3521182 3521182 3521182 3521182 3521182 3521182 3521182 3521182 3521182 3521182 3521182 3521182 3521182 3521182 3521182 3521182 3521182 3521182 3521182 3521182 3521182 3521182 3521182 3521182 3521182 3521182 3521182 3521182 3521182 3521182 3521182 3521182 3521182 3521182 3521182 3521182 3521182 3521182 3521182 3521182 3521182 3521182 3521182 3521182 3521182 3521182 3521182 3521182 3521182 3521182 3521182 3521182 3521182 3521182 3521182 3521182 3521182 3521182 3521182 3521182 3521182 3521182 3521182 3521182 3521182 3521182 3521182 3521182 3521182 3521182 3521182 3521182 3521182 3521182 3521182 3521182 3521182 3521182 3521182 3521182 3521182 3521182 3521182 3521182 3521182 3521182 3521182 3521182 3521182 3521182 3521182 3521182 3521182 3521182 3521182 3521182 3521182 3521182 3521182 3521182 3521182 3521182 3521182 3521182 3521182 3521182 3521182 3521182 3521182 3521182 3521182 3521182 3521182 3521182 3521182 3521182 3521182 3521182 3521182 3521182 3521182 3521182 3521182 3521182 3521182 3521182 3521182 3521182 3521182 3521182 3521182 3521182 3521182 3521182 3521182 3521182 3521182 3521182 3521182 3521182 3521182 3521182 3521182 3521182 3521182 3521182 3521182 3521182 3521182 3521182 3521182 3521182 3521182 3521182 3521182 3521182 3521182 3521182 3521182 3521182 3521182 3521182 3521182 3521182 3521182 3521182 3521182 3521182 3521182 3521182 3521182 3521182 3521182 3521182 3521182 3521182 3521182 3521182 3521182 3521182 3521182 3521182 3521182 3521182 3521182 3521182 3521182 3521182 3521182 3521182 3521182 3521182 3521182 3521182 3521182 3521182 3521182 3521182 3521182 3521182 3521182 3521182 3521182 3521182 3521182 3521182 3521182 3521182 3521182 3521182 3521182 3521182 3521182 3521182 3521182 3521182 3521182 3521182 3521182 3521182 3521182 3521182 3521182 3521182 3521182 3521182 3521182 3521182 3521182 3521182 3521182 3521182 3521182 3521182 3521182 3521182 3521182 3521182 3521182 3521182 3521182 3521182 3521182 3521182 3521182 3521182 3521182 3521182 3521182 3521182 3521182 3521182 3521182 3521182 3521182 3521182 3521182 3521182 3521182 3521182 3521182 3521182 3521182 3521182 3521182 3521182 3521182 3521182 3521182 3521182 3521182 3521182 3521182 3521182 3521182 3521182 3521182 3521182 3521182 3521182 3521182 3521182 3521182 3521182 3521182 3521182 3521182 3521182 3521182 3521182 3521182 3521182 3521182 3521182 3521182 3521182 3521182 3521182 3521182 3521182 3521182 3521182 3521182 3521182 3521182 3521182 3521182 3521182 3521182 3521182 3521182 3521182 3521182 3521182 3521182 3521182 3521182 3521182 3521182 3521182 3521182 3521182 3521182 3521182 3521182 3521182 3521182 3521182 3521182 3521182 3521182 3521182 3521182 3521182 3521182 3521182 3521182 3521182 3521182 3521182 3521182 3521182 3521182 3521182 3521182 3521182 3521182 3521182 3521182 3521182 3521182 3521182 3521182 3521182 3521182 3521182 3521182 3521182 3521182 3521182 3521182 3521182 3521182 3521182 3521182 3521182 3521182 3521182 3521182 3521182 3521182 3521182 3521182 3521182 3521182 3521182 3521182 3521182 3521182 3521182 3521182 3521182 3521182 3521182 3521182 3521182 3521182 3521182 3521182 3521182 3521182 3521182 3521182 3521182 3521182 3521182 3521182 3521182 3521182 3521182 3521182 3521182 3521182 3521182 3521182 3521182 3521182 3521182 3521182 3521182 3521182 3521182 3521182 3521182 3521182 3521182 3521182 3521182 3521182 3521182 3521182 3521182 3521182 3521182 3521182 3521182 3521182 3521182 3521182 3521182 3521182 3521182 3521182 3521182 3521182 3521182 3521182 3521182 3521182 3521182 3521182 3521182 3521182 3521182 3521182 3521182 3521182 3521182 3521182 3521182 3521182 3521182 3521182 3521182 3521182 3521182 3521182 3521182 3521182 3521182 3521182 3521182 3521182 3521182 3521182 3521182 3521182 3521182 3521182 3521182 3521182 3521182 3521182 3521182 3521182 3521182 3521182 3521182 3521182 3521182 3521182 3521182 3521182 3521182 3521182 3521182 3521182 3521182 3521182 3521182 3521182 3521182 3521182 3521182 3521182 3521182 3521182 3521182 3521182 3521182 3521182 3521182 3521182 3521182 3521182 3521182 3521182 3521182 3521182 3521182 3521182 3521182 3521182 3521182 3521182 3521182 3521182 3521182 3521182 3521182 3521182 3521182 3521182 3521182 3521182 3521182 3521182 3521182 3521182 3521182 3521182 3521182 3521182 3521182 3521182 3521182 3521182 3521182 3521182 3521182 3521182 3521182 3521182 3521182 3521182 3521182 3521182 3521182 3521182 3521182 3521182 3521182 3521182 3521182 3521182 3521182 3521182 3521182 3521182 3521182 3521182 3521182 3521182 3521182 3521182 3521182 3521182 3521182 3521182 3521182 3521182 3521182 3521182 3521182 3521182 3521182 3521182 3521182 3521182 3521182 3521182 3521182 3521182 3521182 3521182 3521182 3521182 3521182 3521182 3521182 3521182 3521182 3521182 3521182 3521182 3521182 3521182 3521182 3521182 3521182 3521182 3521182 3521182 3521182 3521182 3521182 3521182 3521182 3521182 3521182 3521182 3521182 3521182 3521182 3521182 3521182 3521182 3521182 3521182 3521182 3521182 3521182 3521182 3521182 3521182 3521182 3521182 3521182 3521182 3521182 3521182 3521182 3521182 3521182 3521182 3521182 3521182 3521182 3521182 3521182 3521182 3521182 3521182 3521182 3521182 3521182 3521182 3521182 3521182 3521182 3521182 3521182 3521182 3521182 3521182 3521182 3521182 3521182 3521182 3521182 3521182 3521182 3521182 3521182 3521182 3521182 3521182 3521182 3521182 3521182 3521182 3521182 3521182 3521182 3521182 3521182 3521182 3521182 3521182 3521182 3521182 3521182 3521182 3521182 3521182 3521182 3521182 3521182 3521182 3521182 3521182 3521182 3521182 3521182 3521182 3521182 3521182 3521182 3521182 3521182 3521182 3521182 3521182 3521182 3521182 3521182 3521182 3521182 3521182 3521182 3521182 3521182 3521182 3521182 3521182 3521182 3521182 3521182 3521182 3521182 3521182 3521182 3521182 3521182 3521182 3521182 3521182 3521182 3521182 3521182 3521182 3521182 3521182 3521182 3521182 3521182 3521182 3521182 3521182 3521182 3521182 3521182 3521182 3521182 3521182 3521182 3521182 3521182 3521182 3521182 3521182 3521182 3521182 3521182 3521182 3521182 3521182 3521182 3521182 3521182 3521182 3521182 3521182 3521182 3521182 3521182 3521182 3521182 3521182 3521182 3521182 3521182 3521182 3521182 3521182 3521182 3521182 3521182 3521182 3521182 3521182 3521182 3521182 3521182 3521182 3521182 3521182 3521182 3521182 3521182 3521182 3521182 3521182 3521182 3521182 3521182 3521182 3521182 3521182 3521182 3521182 3521182 3521182 3521182 3521182 3521182 3521182 3521182 3521182 3521182 3521182 3521182 3521182 3521182 3521182 3521182 3521182 3521182 3521182 3521182 3521182 3521182 3521182 3521182 3521182 3521182 3521182 3521182 3521182 3521182 3521182 3521182 3521182 3521182 3521182 3521182 3521182 3521182 3521182 3521182 3521182 3521182 3521182 3521182 3521182 3521182 3521182 3521182 3521182 3521182 3521182 3521182 3521182 3521182 3521182 3521182 3521182 3521182 3521182 3521182 3521182 3521182 3521182 3521182 3521182 3521182 3521182 3521182 3521182 3521182 3521182 3521182 3521182 3521182 3521182 3521182 3521182 3521182 3521182 3521182 3521182 3521182 3521182 3521182 3521182 3521182 3521182 3521182 3521182 3521182 3521182 3521182 3521182 3521182 3521182 3521182 3521182 3521182 3521182 3521182 3521182 3521182 3521182 3521182 3521182 3521182 3521182 3521182 3521182 3521182 3521182 3521182 3521182 3521182 3521182 3521182 3521182 3521182 3521182 3521182 3521182 3521182 3521182 3521182 3521182 3521182 3521182 3521182 3521182 3521182 3521182 3521182 3521182 3521182 3521182 3521182 3521182 3521182 3521182 3521182 3521182 3521182 3521182 3521182 3521182 3521182 3521182 3521182 3521182 3521182 3521182 3521182 3521182 3521182 3521182 3521182 3521182 3521182 3521182 3521182 3521182 3521182 3521182 3521182 3521182 3521182 3521182 3521182 3521182 3521182 3521182 3521182 3521182 3521182 3521182 3521182 3521182 3521182 3521182 3521182 3521182 3521182 3521182 3521182 3521182 3521182 3521182 3521182 3521182 3521182 3521182 3521182 3521182 3521182 3521182 3521182 3521182 3521182 3521182 3521182 3521182 3521182 3521182 3521182 3521182 3521182 3521182 3521182 3521182 3521182 3521182 3521182 3521182 3521182 3521182 3521182 3521182 3521182 3521182 3521182 3521182 3521182 3521182 3521182 3521182 3521182 3521182 3521182 3521182 3521182 3521182 3521182 3521182 3521182 3521182 3521182 3521182 3521182 3521182 3521182 3521182 3521182 3521182 3521182 3521182 3521182 3521182 3521182 3521182 3521182 3521182 3521182 3521182 3521182 3521182 3521182 3521182 3521182 3521182 3521182 3521182 3521182 3521182 3521182 3521182 3521182 3521182 3521182 3521182 3521182 3521182 3521182 3521182 3521182 3521182 3521182 3521182 3521182 3521182 3521182 3521182 3521182 3521182 3521182 3521182 3521182 3521182 3521182 3521182 3521182 3521182 3521182 3521182 3521182 3521182 3521182 3521182 3521182 3521182 3521182 3521182 3521182 3521182 3521182 3521182 3521182 3521182 3521182 3521182 3521182 3521182 3521182 3521182 3521182 3521182 3521182 3521182 3521182 3521182 3521182 3521182 3521182 3521182 3521182 3521182 3521182 3521182 3521182 3521182 3521182 3521182 3521182 3521182 3521182 3521182 3521182 3521182 3521182 3521182 3521182 3521182 3521182 3521182 3521182 3521182 3521182 3521182 3521182 3521182 3521182 3521182 3521182 3521182 3521182 3521182 3521182 3521182 3521182 3521182 3521182 3521182 3521182 3521182 3521182 3521182 3521182 3521182 3521182 3521182 3521182 3521182 3521182 3521182 3521182 3521182 3521182 3521182 3521182 3521182 3521182 3521182 3521182 3521182 3521182 3521182 3521182 3521182 3521182 3521182 3521182 3521182 3521182 3521182 3521182 3521182 3521182 3521182 3521182 3521182 3521182 3521182 3521182 3521182 3521182 3521182 3521182 3521182 3521182 3521182 3521182 3521182 3521182 3521182 3521182 3521182 3521182 3521182 3521182 3521182 3521182 3521182 3521182 3521182 3521182 3521182 3521182 3521182 3521182 3521182 3521182 3521182 3521182 3521182 3521182 3521182 3521182 3521182 3521182 3521182 3521182 3521182 3521182 3521182 3521182 3521182 3521182 3521182 3521182 3521182 3521182 3521182 3521182 3521182 3521182 3521182 3521182 3521182 3521182 3521182 3521182 3521182 3521182 3521182 3521182 3521182 3521182 3521182 3521182 3521182 3521182 3521182 3521182 3521182 3521182 3521182 3521182 3521182 3521182 3521182 3521182 3521182 3521182 3521182 3521182 3521182 3521182 3521182 3521182 3521182 3521182 3521182 3521182 3521182 3521182 3521182 3521182 3521182 3521182 3521182 3521182 3521182 3521182 3521182 3521182 3521182 3521182 3521182 3521182 3521182 3521182 3521182 3521182 3521182 3521182 3521182 3521182 3521182 3521182 3521182 3521182 3521182 3521182 3521182 3521182 3521182 3521182 3521182 3521182 3521182 3521182 3521182 3521182 3521182 3521182 3521182 3521182 3521182 3521182 3521182 3521182 3521182 3521182 3521182 3521182 3521182 3521182 3521182 3521182 3521182 3521182 3521182 3521182 3521182 3521182 3521182 3521182 3521182 3521182 3521182 3521182 3521182 3521182 3521182 3521182 3521182 3521182 3521182 3521182 3521182 3521182 3521182 3521182 3521182 3521182 3521182 3521182 3521182 3521182 3521182 3521182 3521182 3521182 3521182 3521182 3521182 3521182 3521182 3521182 3521182 3521182 3521182 3521182 3521182 3521182 3521182 3521182 3521182 3521182 3521182 3521182 3521182 3521182 3521182 3521182 3521182 3521182 3521182 3521182 3521182 3521182 3521182 3521182 3521182 3521182 3521182 3521182 3521182 3521182 3521182 3521182 3521182 3521182 3521182 3521182 3521182 3521182 3521182 3521182 3521182 3521182 3521182 3521182 3521182 3521182 3521182 3521182 3521182 3521182 3521182 3521182 3521182 3521182 3521182 3521182 3521182 3521182 3521182 3521182 3521182 3521182 3521182 3521182 3521182 3521182 3521182 3521182 3521182 3521182 3521182 3521182 3521182 3521182 3521182 3521182 3521182 3521182 3521182 3521182 3521182 3521182 3521182 3521182 3521182 3521182 3521182 3521182 3521182 3521182 3521182 3521182 3521182 3521182 3521182 3521182 3521182 3521182 3521182 3521182 3521182 3521182 3521182 3521182
