contest/ICPC/2014/欧洲/NWERC西北欧/all/knapsackcollection/data/secret/06-maximalResult_allSame.ans
39989996002
39999996000
39994996001/1
